p cnf 19 19
11 12 -13 -14 -15 16 17 18 19 110 111 -112 113 114 115 116 117 118 -119 0
11 12 -13 14 15 -16 17 18 -19 110 111 112 -113 -114 -115 -116 -117 -118 119 0
-11 -12 13 14 15 16 17 18 -19 -110 -111 112 113 114 115 116 -117 118 -119 0
-11 12 13 14 15 -16 17 18 -19 110 -111 112 113 -114 115 116 -117 118 -119 0
-11 12 13 14 15 16 17 18 -19 110 111 112 113 -114 -115 116 -117 -118 119 0
11 -12 13 -14 15 16 17 18 19 110 111 112 -113 114 115 -116 -117 -118 119 0
11 12 13 14 15 16 17 -18 19 -110 -111 112 113 114 115 116 117 -118 119 0
11 12 13 14 15 16 -17 18 19 110 111 112 113 -114 115 116 117 118 119 0
11 -12 -13 -14 -15 16 17 18 19 110 111 112 113 114 115 116 -117 -118 119 0
11 12 -13 14 15 16 -17 18 19 110 111 112 -113 -114 -115 116 117 118 119 0
11 12 -13 -14 15 16 -17 18 19 110 111 112 113 114 115 116 -117 118 119 0
-11 12 13 14 15 16 17 18 19 110 111 112 113 114 -115 116 117 -118 119 0
11 -12 13 14 15 -16 17 18 19 -110 111 112 113 114 115 116 117 118 119 0
11 -12 13 -14 -15 16 17 -18 19 -110 111 112 113 114 -115 116 -117 118 119 0
11 -12 13 14 -15 16 17 18 19 -110 111 -112 113 -114 115 116 117 118 119 0
11 -12 13 14 15 -16 17 18 19 110 111 112 113 114 115 116 -117 118 119 0
11 -12 -13 -14 -15 -16 17 18 -19 110 -111 112 113 -114 115 -116 117 -118 119 0
11 -12 13 14 -15 -16 -17 18 -19 110 111 -112 113 114 115 116 -117 118 -119 0
-11 12 -13 -14 15 16 17 18 19 110 111 112 113 114 115 116 117 -118 119 0
